Route #1: 77 23 44 26 11 64 40
Route #2: 58 38 69 67 43 21 24 52 1
Route #3: 72 17
Route #4: 8 71 15 34 46 12 22
Route #5: 7 32 76 73 31 45 51 56
Route #6: 47 30 37 70 29 57 65
Route #7: 27 49 5 63 2
Route #8: 75 3 20 54 62 6 60 66
Route #9: 50 61 39 48 74 19 9
Route #10: 28 13 33 55 35 59 4 36 14 41
Route #11: 53 68 10 25 18 16 42
Cost 1237
Time 0.17389
